RT is False
Default write of storage_offers_DA.csv just to have a file (but constraint should be inactive)
Reading model...
...model read.
creating competitive generators file...
...competitive generators recorded.
Loading data...
.. day-ahead data read.
Compiling instance...
...instance created.
Creating Offer Mitigation (model will solve as dispatch if TRUE)...
NOTE: storage offers will not be mitigated
...storage offer mitigation file created
Converting model to MPEC...
...converted
NOTE: initial MIP solve with only storage competitive to get feasible solution
Solving...

Welcome to IBM(R) ILOG(R) CPLEX(R) Interactive Optimizer 12.9.0.0
  with Simplex, Mixed Integer & Barrier Optimizers
5725-A06 5725-A29 5724-Y48 5724-Y49 5724-Y54 5724-Y55 5655-Y21
Copyright IBM Corp. 1988, 2019.  All Rights Reserved.

Type 'help' for a list of available commands.
Type 'help' followed by a command name for more
information on commands.

CPLEX> Logfile 'cplex.log' closed.
Logfile 'C:\Users\llavin\Desktop\test85\logs\tmpo_qqep9c.cplex.log' open.
CPLEX> New value for parallel optimization mode: -1
CPLEX> New value for mixed integer optimality gap tolerance: 0.001
CPLEX> New value for deterministic time limit in ticks: 100000
CPLEX> Problem 'C:\Users\llavin\Desktop\test85\logs\tmpw8q0yzup.pyomo.lp' read.
Read time = 0.23 sec. (14.72 ticks)
CPLEX> Problem name         : C:\Users\llavin\Desktop\test85\logs\tmpw8q0yzup.pyomo.lp
Objective sense      : Maximize
Variables            :   53803  [Nneg: 1,  Box: 21998,  Free: 4464,
                                 Binary: 27340]
Objective nonzeros   :    9075
Linear constraints   :  123205  [Less: 41346,  Greater: 59096,  Equal: 22763]
  Nonzeros           :  289328
  RHS nonzeros       :   67512

Variables            : Min LB: -5000.000        Max UB: 1000000.       
Objective nonzeros   : Min   : 0.1000000        Max   : 2500.000       
Linear constraints   :
  Nonzeros           : Min   : 0.1000000        Max   : 1000000.       
  RHS nonzeros       : Min   : 0.1000000        Max   : 1000000.       
CPLEX> CPXPARAM_Parallel                                -1
CPXPARAM_DetTimeLimit                            100000
CPXPARAM_MIP_Tolerances_MIPGap                   0.001
Tried aggregator 3 times.
MIP Presolve eliminated 88625 rows and 18971 columns.
MIP Presolve added 3421 rows and 0 columns.
MIP Presolve modified 24840 coefficients.
Aggregator did 12984 substitutions.
Reduced MIP has 25017 rows, 21316 columns, and 68787 nonzeros.
Reduced MIP has 8427 binaries, 0 generals, 0 SOSs, and 0 indicators.
Presolve time = 0.28 sec. (171.36 ticks)
Probing fixed 409 vars, tightened 3992 bounds.
Probing time = 0.06 sec. (17.66 ticks)
Tried aggregator 2 times.
MIP Presolve eliminated 921 rows and 819 columns.
MIP Presolve modified 3174 coefficients.
Aggregator did 24 substitutions.
Reduced MIP has 24072 rows, 20473 columns, and 66049 nonzeros.
Reduced MIP has 8018 binaries, 0 generals, 0 SOSs, and 0 indicators.
Presolve time = 0.11 sec. (93.19 ticks)
Probing fixed 0 vars, tightened 322 bounds.
Probing time = 0.13 sec. (21.65 ticks)
Clique table members: 44083.
MIP emphasis: balance optimality and feasibility.
MIP search method: dynamic search.
Parallel mode: opportunistic, using up to 32 threads.
Root relaxation solution time = 0.41 sec. (615.37 ticks)

        Nodes                                         Cuts/
   Node  Left     Objective  IInf  Best Integer    Best Bound    ItCnt     Gap

      0     0     7806.5400   114                   7806.5400     5770         
      0     0     7806.5396    12                    Cuts: 54     5789         
      0     0     7806.5396    15                     Cuts: 5     5796         
      0     0     7615.9299    11                     Cuts: 2     5805         
      0     0     7492.4489    11                    Cuts: 10     5814         
*     0+    0                        -7297.5796     7492.4489           202.67%
      0     0     7329.8300    15    -7297.5796      Cuts: 18     5833  196.20%
*     0+    0                          418.6415     7019.9814              --- 
      0     0     6336.7445    17      418.6415      Cuts: 20     5867     --- 
      0     0     5878.9812    17      418.6415      Cuts: 45     5892     --- 
      0     0     5475.3249    12      418.6415      Cuts: 38     5904     --- 
*     0+    0                         4520.8752     5475.3249            21.11%
      0     0     5475.3249    12     4520.8752       Cuts: 4     5907   21.11%
      0     2        cutoff           4520.8752       Cuts: 7     5937   20.62%
Elapsed time = 5.44 sec. (2668.94 ticks, tree = 0.02 MB, solutions = 6)

Cover cuts applied:  2
Implied bound cuts applied:  11
Flow cuts applied:  57
Mixed integer rounding cuts applied:  13
Gomory fractional cuts applied:  15

Root node processing (before b&c):
  Real time             =    4.01 sec. (2658.76 ticks)
Parallel b&c, 32 threads:
  Real time             =    1.84 sec. (166.61 ticks)
  Sync time (average)   =    1.04 sec.
  Wait time (average)   =    0.00 sec.
                          ------------
Total (root+branch&cut) =    5.86 sec. (2825.37 ticks)

Solution pool: 6 solutions saved.

MIP - Integer optimal solution:  Objective =  5.0543961406e+03
Solution time =    5.88 sec.  Iterations = 6355  Nodes = 67
Deterministic time = 2825.52 ticks  (480.94 ticks/sec)

CPLEX> Incumbent solution written to file 'C:\Users\llavin\Desktop\test85\logs\tmpiwsjtn17.cplex.sol'.
CPLEX> NOTE: no warmstart specified for MIP iteration, default behavior is true
NOTE: resolving with all competitive generators using storage-only solution to warmstart
Solving...

Welcome to IBM(R) ILOG(R) CPLEX(R) Interactive Optimizer 12.9.0.0
  with Simplex, Mixed Integer & Barrier Optimizers
5725-A06 5725-A29 5724-Y48 5724-Y49 5724-Y54 5724-Y55 5655-Y21
Copyright IBM Corp. 1988, 2019.  All Rights Reserved.

Type 'help' for a list of available commands.
Type 'help' followed by a command name for more
information on commands.

CPLEX> Logfile 'cplex.log' closed.
Logfile 'C:\Users\llavin\Desktop\test85\logs\tmpp_h85dzg.cplex.log' open.
CPLEX> New value for parallel optimization mode: -1
CPLEX> New value for mixed integer optimality gap tolerance: 0.001
CPLEX> New value for deterministic time limit in ticks: 100000
CPLEX> Problem 'C:\Users\llavin\Desktop\test85\logs\tmpqe_q245m.pyomo.lp' read.
Read time = 0.25 sec. (14.75 ticks)
CPLEX> MIP start file 'C:\Users\llavin\Desktop\test85\logs\tmp8tfo3t7r.cplex.mst' read.
CPLEX> Problem name         : C:\Users\llavin\Desktop\test85\logs\tmpqe_q245m.pyomo.lp
Objective sense      : Maximize
Variables            :   54523  [Nneg: 1,  Box: 22718,  Free: 4464,
                                 Binary: 27340]
Objective nonzeros   :    9773
Linear constraints   :  123205  [Less: 41346,  Greater: 59096,  Equal: 22763]
  Nonzeros           :  289328
  RHS nonzeros       :   67512

Variables            : Min LB: -5000.000        Max UB: 1000000.       
Objective nonzeros   : Min   : 0.1000000        Max   : 2500.000       
Linear constraints   :
  Nonzeros           : Min   : 0.1000000        Max   : 1000000.       
  RHS nonzeros       : Min   : 0.1000000        Max   : 1000000.       
CPLEX> CPXPARAM_Parallel                                -1
CPXPARAM_DetTimeLimit                            100000
CPXPARAM_MIP_Tolerances_MIPGap                   0.001
Warning:  No solution found from 1 MIP starts.
Retaining values of one MIP start for possible repair.
Tried aggregator 3 times.
MIP Presolve eliminated 88625 rows and 19691 columns.
MIP Presolve added 3421 rows and 0 columns.
MIP Presolve modified 24840 coefficients.
Aggregator did 12984 substitutions.
Reduced MIP has 25017 rows, 21316 columns, and 68787 nonzeros.
Reduced MIP has 8427 binaries, 0 generals, 0 SOSs, and 0 indicators.
Presolve time = 0.28 sec. (171.73 ticks)
Probing fixed 409 vars, tightened 3992 bounds.
Probing time = 0.06 sec. (17.66 ticks)
Tried aggregator 2 times.
MIP Presolve eliminated 921 rows and 819 columns.
MIP Presolve modified 3174 coefficients.
Aggregator did 24 substitutions.
Reduced MIP has 24072 rows, 20473 columns, and 66049 nonzeros.
Reduced MIP has 8018 binaries, 0 generals, 0 SOSs, and 0 indicators.
Presolve time = 0.11 sec. (93.20 ticks)
Probing fixed 0 vars, tightened 322 bounds.
Probing time = 0.14 sec. (21.65 ticks)
Clique table members: 44083.
MIP emphasis: balance optimality and feasibility.
MIP search method: dynamic search.
Parallel mode: opportunistic, using up to 32 threads.
Root relaxation solution time = 0.44 sec. (634.27 ticks)

        Nodes                                         Cuts/
   Node  Left     Objective  IInf  Best Integer    Best Bound    ItCnt     Gap

      0     0    40979.2846   116                  40979.2846     5904         
      0     0    33892.2884    40                    Cuts: 82     5947         
      0     0    33636.5995    43                    Cuts: 24     5978         
      0     0    33477.2150    41                    Cuts: 29     6004         
      0     0    33427.4094    46                    Cuts: 24     6027         
      0     0    32454.5973    48                    Cuts: 30     6063         
      0     0    32224.6226    50                    Cuts: 17     6083         
      0     0    32224.6226    50                     Cuts: 8     6087         
      0     0    32224.6226    44                     Cuts: 2     6089         
Repair heuristic found nothing.
      0    10    31754.1200    35                     Cuts: 7     6206         
Elapsed time = 7.44 sec. (3695.25 ticks, tree = 0.02 MB, solutions = 0)
    598   124   -46051.2965    13                  31529.7769     7626         
*   986+  360                        28605.2446    31529.7769            10.22%
   1519   214    30871.9247     8    29256.7523    31447.3217    17817    7.49%
   2243   305        cutoff          29405.5116    29636.5407    25338    0.79%
   2889    75    29483.3271    11    29405.5116    29636.5407    30426    0.79%

Cover cuts applied:  31
Implied bound cuts applied:  9
Flow cuts applied:  84
Mixed integer rounding cuts applied:  8
Gomory fractional cuts applied:  15

Root node processing (before b&c):
  Real time             =    5.69 sec. (3657.78 ticks)
Parallel b&c, 32 threads:
  Real time             =    7.97 sec. (1403.26 ticks)
  Sync time (average)   =    2.03 sec.
  Wait time (average)   =    0.00 sec.
                          ------------
Total (root+branch&cut) =   13.66 sec. (5061.04 ticks)

Solution pool: 3 solutions saved.

MIP - Integer optimal, tolerance (0.001/1e-06):  Objective =  2.9405511636e+04
Current MIP best bound =  2.9434092787e+04 (gap = 28.5812, 0.10%)
Solution time =   13.69 sec.  Iterations = 31083  Nodes = 3075 (37)
Deterministic time = 5061.20 ticks  (369.75 ticks/sec)

CPLEX> Incumbent solution written to file 'C:\Users\llavin\Desktop\test85\logs\tmp621ccljl.cplex.sol'.
CPLEX> Exporting results... 
